Problem:    
Rows:       260
Columns:    89 (72 integer, 72 binary)
Non-zeros:  812
Status:     INTEGER OPTIMAL
Objective:  value = 45.006878 (MINimum)

   No.   Row name        Activity     Lower bound   Upper bound
------ ------------    ------------- ------------- -------------
     1 r.5                   1045.01             0               
     2 r.6                  -987.713      -988.759               
     3 r.7                   45.0069             0               
     4 r.8                   14.1357      -978.014               
     5 r.9                   1045.01             0               
     6 r.10                  -970.51      -988.738               
     7 r.11                  45.0069             0               
     8 r.12                 -976.876      -977.922               
     9 r.13                  1045.01             0               
    10 r.14                 -985.864      -998.151               
    11 r.15                  45.0069             0               
    12 r.16                 -994.711      -995.757               
    13 r.17                  1045.01             0               
    14 r.18                 -981.773      -997.628               
    15 r.19                  45.0069             0               
    16 r.20                 -990.623      -991.669               
    17 r.21                  45.0069             0               
    18 r.22                  14.1357      -994.652               
    19 r.23                  1045.01             0               
    20 r.24                 -985.864      -990.278               
    21 r.25                  1045.01             0               
    22 r.26                 -998.954      -998.954               
    23 r.27                  45.0069             0               
    24 r.28                   1.0462       -997.29               
    25 r.29                  1045.01             0               
    26 r.30                 -954.993      -984.483               
    27 r.31                  45.0069             0               
    28 r.32                  45.0069      -966.759               
    29 r.33                  45.0069             0               
    30 r.34                  45.0069      -984.799               
    31 r.35                  1045.01             0               
    32 r.36                 -954.993      -969.129               
    33 r.37                        1             1             = 
    34 r.38                        1             1             = 
    35 r.39                        1             1             = 
    36 r.40                        1             1             = 
    37 r.41                        1             1             = 
    38 r.42                        1             1             = 
    39 r.43                        1             1             = 
    40 r.44                        1             1             = 
    41 r.45                        2             2               
    42 r.46                       -2         -1001               
    43 r.47                 -982.797      -988.738               
    44 r.48                     1000             2               
    45 r.49                    -1000         -1001               
    46 r.50                  1008.99      -977.922               
    47 r.51                        2             2               
    48 r.52                       -2         -1001               
    49 r.53                 -998.151      -998.151               
    50 r.54                     1000             2               
    51 r.55                    -1000         -1001               
    52 r.56                  991.154      -995.757               
    53 r.57                        2             2               
    54 r.58                       -2         -1001               
    55 r.59                  -994.06      -997.628               
    56 r.60                     1000             2               
    57 r.61                    -1000         -1001               
    58 r.62                  995.242      -991.669               
    59 r.63                     1001             2               
    60 r.64                    -1001         -1001               
    61 r.65                  2001.85      -994.652               
    62 r.66                     1001             2               
    63 r.67                    -1001         -1001               
    64 r.68                     2000      -990.278               
    65 r.69                 -988.759      -988.759               
    66 r.70                  13.0895      -978.014               
    67 r.71                 -988.759      -988.759               
    68 r.72                  13.0895      -978.014               
    69 r.73                  -967.28      -984.483               
    70 r.74                  32.7199      -966.759               
    71 r.75                 -969.129      -984.483               
    72 r.76                  30.8712      -966.759               
    73 r.77                  32.7199      -984.799               
    74 r.78                  -967.28      -969.129               
    75 r.79                  30.8712      -984.799               
    76 r.80                 -969.129      -969.129               
    77 r.81                        2             2               
    78 r.82                       -2         -1001               
    79 r.83                  982.797       11.2408               
    80 r.84                     1000             2               
    81 r.85                    -1000         -1001               
    82 r.86                  2991.01       21.9861               
    83 r.87                        2             2               
    84 r.88                       -2         -1001               
    85 r.89                  -15.354      -998.151               
    86 r.90                     1000             2               
    87 r.91                    -1000         -1001               
    88 r.92                  1982.17      -995.757               
    89 r.93                        2             2               
    90 r.94                       -2         -1001               
    91 r.95                 -11.2624      -997.628               
    92 r.96                     1000             2               
    93 r.97                    -1000         -1001               
    94 r.98                  1986.25      -991.669               
    95 r.99                     1001             2               
    96 r.100                   -1001         -1001               
    97 r.101                 1984.65      -994.652               
    98 r.102                    1001             2               
    99 r.103                   -1001         -1001               
   100 r.104                 2991.01      -990.278               
   101 r.105                -971.557      -988.738               
   102 r.106                -977.922      -977.922               
   103 r.107                -971.557      -988.738               
   104 r.108                -977.922      -977.922               
   105 r.109                -984.483      -984.483               
   106 r.110                 15.5172      -966.759               
   107 r.111                 21.8829      -984.483               
   108 r.112                 1021.88      -966.759               
   109 r.113                    1001             2               
   110 r.114                   -1001         -1001               
   111 r.115                 2015.52      -984.799               
   112 r.116                    1001             2               
   113 r.117                   -1001         -1001               
   114 r.118                 3021.88      -969.129               
   115 r.119                       2             2               
   116 r.120                      -2         -1001               
   117 r.121                 998.151       11.2408               
   118 r.122                    1000             2               
   119 r.123                   -1000         -1001               
   120 r.124                 3008.85       21.9861               
   121 r.125                       2             2               
   122 r.126                      -2         -1001               
   123 r.127                  15.354       11.2624               
   124 r.128                    1000             2               
   125 r.129                   -1000         -1001               
   126 r.130                 2017.83       22.0778               
   127 r.131                       2             2               
   128 r.132                      -2         -1001               
   129 r.133                -995.908      -997.628               
   130 r.134                    1000             2               
   131 r.135                   -1000         -1001               
   132 r.136                 2004.09      -991.669               
   133 r.137                    1001             2               
   134 r.138                   -1001         -1001               
   135 r.139                    2000      -994.652               
   136 r.140                    1001             2               
   137 r.141                   -1001         -1001               
   138 r.142                 3008.85      -990.278               
   139 r.143                -986.911      -998.151               
   140 r.144                -995.757      -995.757               
   141 r.145                -986.911      -998.151               
   142 r.146                -995.757      -995.757               
   143 r.147                -969.129      -984.483               
   144 r.148                 30.8712      -966.759               
   145 r.149                 39.7175      -984.483               
   146 r.150                 1039.72      -966.759               
   147 r.151                 30.8712      -984.799               
   148 r.152                -969.129      -969.129               
   149 r.153                 1039.72      -984.799               
   150 r.154                 39.7175      -969.129               
   151 r.155                       2             2               
   152 r.156                      -2         -1001               
   153 r.157                  994.06       11.2408               
   154 r.158                    1000             2               
   155 r.159                   -1000         -1001               
   156 r.160                 3004.76       21.9861               
   157 r.161                       2             2               
   158 r.162                      -2         -1001               
   159 r.163                 11.2624       11.2624               
   160 r.164                    1000             2               
   161 r.165                   -1000         -1001               
   162 r.166                 2013.75       22.0778               
   163 r.167                       2             2               
   164 r.168                      -2         -1001               
   165 r.169                 995.908       1.84868               
   166 r.170                    1000             2               
   167 r.171                   -1000         -1001               
   168 r.172                 1995.91        4.2432               
   169 r.173                    1001             2               
   170 r.174                   -1001         -1001               
   171 r.175                 1995.91      -994.652               
   172 r.176                    1001             2               
   173 r.177                   -1001         -1001               
   174 r.178                 3004.76      -990.278               
   175 r.179                -982.819      -997.628               
   176 r.180                -991.669      -991.669               
   177 r.181                -982.819      -997.628               
   178 r.182                -991.669      -991.669               
   179 r.183                 -973.22      -984.483               
   180 r.184                 26.7796      -966.759               
   181 r.185                 35.6295      -984.483               
   182 r.186                 1035.63      -966.759               
   183 r.187                    1001             2               
   184 r.188                   -1001         -1001               
   185 r.189                 2026.78      -984.799               
   186 r.190                    1001             2               
   187 r.191                   -1001         -1001               
   188 r.192                 3035.63      -969.129               
   189 r.193                    1001             2               
   190 r.194                   -1001         -1001               
   191 r.195                 1998.15       11.2408               
   192 r.196                    1001             2               
   193 r.197                   -1001         -1001               
   194 r.198                    2000       21.9861               
   195 r.199                    1001             2               
   196 r.200                   -1001         -1001               
   197 r.201                 2015.35       11.2624               
   198 r.202                    1001             2               
   199 r.203                   -1001         -1001               
   200 r.204                 1008.99       22.0778               
   201 r.205                    1001             2               
   202 r.206                   -1001         -1001               
   203 r.207                    2000       1.84868               
   204 r.208                    1001             2               
   205 r.209                   -1001         -1001               
   206 r.210                 991.154        4.2432               
   207 r.211                    1001             2               
   208 r.212                   -1001         -1001               
   209 r.213                 2004.09       2.37167               
   210 r.214                    1001             2               
   211 r.215                   -1001         -1001               
   212 r.216                 995.242        8.3312               
   213 r.217                 13.0895      -994.652               
   214 r.218                -986.911      -990.278               
   215 r.219                 13.0895      -994.652               
   216 r.220                -986.911      -990.278               
   217 r.221                    1001             2               
   218 r.222                   -1001         -1001               
   219 r.223                 2030.87      -984.483               
   220 r.224                    1001             2               
   221 r.225                   -1001         -1001               
   222 r.226                 2030.87      -966.759               
   223 r.227                 30.8712      -984.799               
   224 r.228                -969.129      -969.129               
   225 r.229                 30.8712      -984.799               
   226 r.230                -969.129      -969.129               
   227 r.231                -956.039      -984.483               
   228 r.232                 43.9607      -966.759               
   229 r.233                -956.039      -984.483               
   230 r.234                 43.9607      -966.759               
   231 r.235                    1001             2               
   232 r.236                   -1001         -1001               
   233 r.237                 1969.13        5.3481               
   234 r.238                    1001             2               
   235 r.239                   -1001         -1001               
   236 r.240                 1969.13       9.72231               
   237 r.241                    1001             2               
   238 r.242                   -1001         -1001               
   239 r.243                    2000      -984.799               
   240 r.244                    1001             2               
   241 r.245                   -1001         -1001               
   242 r.246                    2000      -969.129               
   243 r.247                    1001             2               
   244 r.248                   -1001         -1001               
   245 r.249                 1984.48       11.2624               
   246 r.250                    1001             2               
   247 r.251                   -1001         -1001               
   248 r.252                 978.117       22.0778               
   249 r.253                    1001             2               
   250 r.254                   -1001         -1001               
   251 r.255                 1973.22       2.37167               
   252 r.256                    1001             2               
   253 r.257                   -1001         -1001               
   254 r.258                 964.371        8.3312               
   255 r.259                    1001             2               
   256 r.260                   -1001         -1001               
   257 r.261                    2000       15.5172               
   258 r.262                    1001             2               
   259 r.263                   -1001         -1001               
   260 r.264                    2000       33.2409               

   No. Column name       Activity     Lower bound   Upper bound
------ ------------    ------------- ------------- -------------
     1 tt                    45.0069             0               
     2 s_1_1        *              1             0             1 
     3 t_1_1                 32.7199             0               
     4 s_1_8        *              0             0             1 
     5 s_1_7        *              1             0             1 
     6 s_2_1        *              0             0             1 
     7 t_2_1                 30.8712             0               
     8 s_2_8        *              1             0             1 
     9 s_2_7        *              0             0             1 
    10 s_1_2        *              1             0             1 
    11 t_1_2                 15.5172             0               
    12 s_2_2        *              0             0             1 
    13 t_2_2                 1021.88             0               
    14 s_1_3        *              1             0             1 
    15 t_1_3                 30.8712             0               
    16 s_2_3        *              0             0             1 
    17 t_2_3                 1039.72             0               
    18 s_1_4        *              1             0             1 
    19 t_1_4                 26.7796             0               
    20 s_2_4        *              0             0             1 
    21 t_2_4                 1035.63             0               
    22 s_1_5        *              0             0             1 
    23 t_1_5                 30.8712             0               
    24 s_2_5        *              1             0             1 
    25 t_2_5                 30.8712             0               
    26 s_1_6        *              1             0             1 
    27 t_1_6                 43.9607             0               
    28 s_2_6        *              0             0             1 
    29 t_2_6                 43.9607             0               
    30 t_1_7                       0             0               
    31 t_2_7                       0             0               
    32 t_1_8                       0             0               
    33 t_2_8                       0             0               
    34 r_1_1_2      *              0             0             1 
    35 u_1_1_2      *              1             0             1 
    36 r_2_1_2      *              1             0             1 
    37 u_2_1_2      *              0             0             1 
    38 r_1_1_3      *              0             0             1 
    39 u_1_1_3      *              1             0             1 
    40 r_2_1_3      *              1             0             1 
    41 u_2_1_3      *              0             0             1 
    42 r_1_1_4      *              0             0             1 
    43 u_1_1_4      *              1             0             1 
    44 r_2_1_4      *              1             0             1 
    45 u_2_1_4      *              0             0             1 
    46 r_1_1_5      *              1             0             1 
    47 u_1_1_5      *              0             0             1 
    48 r_2_1_5      *              1             0             1 
    49 u_2_1_5      *              0             0             1 
    50 r_1_2_3      *              0             0             1 
    51 u_1_2_3      *              0             0             1 
    52 r_2_2_3      *              1             0             1 
    53 u_2_2_3      *              0             0             1 
    54 r_1_2_4      *              0             0             1 
    55 u_1_2_4      *              0             0             1 
    56 r_2_2_4      *              1             0             1 
    57 u_2_2_4      *              0             0             1 
    58 r_1_2_5      *              1             0             1 
    59 u_1_2_5      *              0             0             1 
    60 r_2_2_5      *              1             0             1 
    61 u_2_2_5      *              0             0             1 
    62 r_1_2_8      *              1             0             1 
    63 u_1_2_8      *              0             0             1 
    64 r_2_2_8      *              1             0             1 
    65 u_2_2_8      *              0             0             1 
    66 r_1_3_4      *              0             0             1 
    67 u_1_3_4      *              1             0             1 
    68 r_2_3_4      *              1             0             1 
    69 u_2_3_4      *              0             0             1 
    70 r_1_3_5      *              1             0             1 
    71 u_1_3_5      *              0             0             1 
    72 r_2_3_5      *              1             0             1 
    73 u_2_3_5      *              0             0             1 
    74 r_1_4_5      *              1             0             1 
    75 u_1_4_5      *              0             0             1 
    76 r_2_4_5      *              1             0             1 
    77 u_2_4_5      *              0             0             1 
    78 r_1_4_8      *              1             0             1 
    79 u_1_4_8      *              0             0             1 
    80 r_2_4_8      *              1             0             1 
    81 u_2_4_8      *              0             0             1 
    82 r_1_5_7      *              1             0             1 
    83 u_1_5_7      *              0             0             1 
    84 r_2_5_7      *              1             0             1 
    85 u_2_5_7      *              0             0             1 
    86 r_1_7_8      *              1             0             1 
    87 u_1_7_8      *              0             0             1 
    88 r_2_7_8      *              1             0             1 
    89 u_2_7_8      *              0             0             1 

Integer feasibility conditions:

KKT.PE: max.abs.err = 4.55e-13 on row 94
        max.rel.err = 7.52e-17 on row 94
        High quality

KKT.PB: max.abs.err = 0.00e+00 on row 0
        max.rel.err = 0.00e+00 on row 0
        High quality

End of output
